193 300 15 116 44 135 203 264 32 183 267 298 24 63 20 68 191 171 30 299 207 115 284 248 185 33 258 160 142 282 39 84 26 105 199 121 240 153 84 23 88 102 20 111 216 39 178 158 210 260 209 168 74 192 116 10 225 73 221 66 106 260 201 132 64 152 4 55 4 88 78 91 241 97 253 157 136 131 66 97 142 274 264 267 166 131 29 90 204 249 155 9 260 108 192 76 259 196 130 14 35 207 157 275 4 109 183 191 291 249 39 184 222 54 151 87 185 179 228 140 179 135 148 139 242 92 214 252 287 43 265 21 2 173 47 57 34 282 299 24 282 37 260 255 142 162 94 78 40 21 269 270 155 117 108 96 260 73 99 246 168 116 18 169 288 116 225 21 97 223 97 78 11 56 85 204 217 178 34 8 198 2 277 53 170 137 200 129 209 299 126 128 166 143 296 